c File: flat30_3_0.col
c
c SOURCE: Joseph Culberson (joe@cs.ualberta.ca)
c DESCRIPTION: Quasi-random coloring problem
c              generated with flatness = 0
c                             probability = 0.200
c                             known coloring = 3
c                             random seed = 238338
c              Creation Date:  Fri Nov 29 22:02:19 1996
c Maximum degree = 6 Minimum degree = 2
c
c cnf created by edge2cnf
p cnf 90 300
-1 -2 0
-1 -3 0
-2 -3 0
1 2 3 0
-4 -5 0
-4 -6 0
-5 -6 0
4 5 6 0
-7 -8 0
-7 -9 0
-8 -9 0
7 8 9 0
-10 -11 0
-10 -12 0
-11 -12 0
10 11 12 0
-13 -14 0
-13 -15 0
-14 -15 0
13 14 15 0
-16 -17 0
-16 -18 0
-17 -18 0
16 17 18 0
-19 -20 0
-19 -21 0
-20 -21 0
19 20 21 0
-22 -23 0
-22 -24 0
-23 -24 0
22 23 24 0
-25 -26 0
-25 -27 0
-26 -27 0
25 26 27 0
-28 -29 0
-28 -30 0
-29 -30 0
28 29 30 0
-31 -32 0
-31 -33 0
-32 -33 0
31 32 33 0
-34 -35 0
-34 -36 0
-35 -36 0
34 35 36 0
-37 -38 0
-37 -39 0
-38 -39 0
37 38 39 0
-40 -41 0
-40 -42 0
-41 -42 0
40 41 42 0
-43 -44 0
-43 -45 0
-44 -45 0
43 44 45 0
-46 -47 0
-46 -48 0
-47 -48 0
46 47 48 0
-49 -50 0
-49 -51 0
-50 -51 0
49 50 51 0
-52 -53 0
-52 -54 0
-53 -54 0
52 53 54 0
-55 -56 0
-55 -57 0
-56 -57 0
55 56 57 0
-58 -59 0
-58 -60 0
-59 -60 0
58 59 60 0
-61 -62 0
-61 -63 0
-62 -63 0
61 62 63 0
-64 -65 0
-64 -66 0
-65 -66 0
64 65 66 0
-67 -68 0
-67 -69 0
-68 -69 0
67 68 69 0
-70 -71 0
-70 -72 0
-71 -72 0
70 71 72 0
-73 -74 0
-73 -75 0
-74 -75 0
73 74 75 0
-76 -77 0
-76 -78 0
-77 -78 0
76 77 78 0
-79 -80 0
-79 -81 0
-80 -81 0
79 80 81 0
-82 -83 0
-82 -84 0
-83 -84 0
82 83 84 0
-85 -86 0
-85 -87 0
-86 -87 0
85 86 87 0
-88 -89 0
-88 -90 0
-89 -90 0
88 89 90 0
-37 -1 0
-38 -2 0
-39 -3 0
-55 -1 0
-56 -2 0
-57 -3 0
-76 -1 0
-77 -2 0
-78 -3 0
-79 -1 0
-80 -2 0
-81 -3 0
-88 -1 0
-89 -2 0
-90 -3 0
-31 -4 0
-32 -5 0
-33 -6 0
-49 -4 0
-50 -5 0
-51 -6 0
-55 -4 0
-56 -5 0
-57 -6 0
-79 -4 0
-80 -5 0
-81 -6 0
-88 -4 0
-89 -5 0
-90 -6 0
-34 -7 0
-35 -8 0
-36 -9 0
-46 -7 0
-47 -8 0
-48 -9 0
-58 -7 0
-59 -8 0
-60 -9 0
-67 -7 0
-68 -8 0
-69 -9 0
-73 -7 0
-74 -8 0
-75 -9 0
-82 -7 0
-83 -8 0
-84 -9 0
-34 -10 0
-35 -11 0
-36 -12 0
-49 -10 0
-50 -11 0
-51 -12 0
-46 -13 0
-47 -14 0
-48 -15 0
-73 -13 0
-74 -14 0
-75 -15 0
-85 -13 0
-86 -14 0
-87 -15 0
-43 -16 0
-44 -17 0
-45 -18 0
-55 -16 0
-56 -17 0
-57 -18 0
-61 -16 0
-62 -17 0
-63 -18 0
-79 -16 0
-80 -17 0
-81 -18 0
-70 -19 0
-71 -20 0
-72 -21 0
-73 -19 0
-74 -20 0
-75 -21 0
-49 -22 0
-50 -23 0
-51 -24 0
-52 -22 0
-53 -23 0
-54 -24 0
-58 -22 0
-59 -23 0
-60 -24 0
-76 -22 0
-77 -23 0
-78 -24 0
-85 -22 0
-86 -23 0
-87 -24 0
-31 -25 0
-32 -26 0
-33 -27 0
-40 -25 0
-41 -26 0
-42 -27 0
-43 -25 0
-44 -26 0
-45 -27 0
-61 -25 0
-62 -26 0
-63 -27 0
-76 -25 0
-77 -26 0
-78 -27 0
-88 -25 0
-89 -26 0
-90 -27 0
-43 -28 0
-44 -29 0
-45 -30 0
-61 -28 0
-62 -29 0
-63 -30 0
-61 -31 0
-62 -32 0
-63 -33 0
-76 -31 0
-77 -32 0
-78 -33 0
-64 -34 0
-65 -35 0
-66 -36 0
-73 -34 0
-74 -35 0
-75 -36 0
-88 -34 0
-89 -35 0
-90 -36 0
-61 -37 0
-62 -38 0
-63 -39 0
-70 -37 0
-71 -38 0
-72 -39 0
-88 -37 0
-89 -38 0
-90 -39 0
-64 -40 0
-65 -41 0
-66 -42 0
-76 -40 0
-77 -41 0
-78 -42 0
-67 -43 0
-68 -44 0
-69 -45 0
-73 -43 0
-74 -44 0
-75 -45 0
-79 -43 0
-80 -44 0
-81 -45 0
-82 -46 0
-83 -47 0
-84 -48 0
-61 -52 0
-62 -53 0
-63 -54 0
-64 -55 0
-65 -56 0
-66 -57 0
-82 -55 0
-83 -56 0
-84 -57 0
-79 -58 0
-80 -59 0
-81 -60 0
-85 -58 0
-86 -59 0
-87 -60 0
-88 -58 0
-89 -59 0
-90 -60 0
